n_res = 4;
rcap = [12, 13, 66, 21];
rtype = [1, 1, 2, 2];
n_tasks = 16;
modes = [ {1}, {2}, {3}, {4}, {5}, {6}, {7}, {8}, {9}, {10}, {11}, {12}, {13}, {14}, {15}, {16} ];
succ = [ {4, 5, 11}, {4, 6, 8}, {5, 12, 15}, {7, 15}, {14, 16}, {7, 10}, {9}, {9, 10}, {12, 16}, {11}, {12, 13, 16}, {14}, {14, 15}, {}, {}, {} ];
n_opt = 16;
dur = [2, 8, 6, 4, 1, 3, 2, 6, 7, 10, 9, 8, 7, 7, 2, 6];
rreq = [|  5,  0,  9,  0,  8,  3,  0,  0,  0,  0,  0,  0,  0,  3,  0,  4
        |  0,  7,  0,  6,  0,  0,  6,  2,  8,  9,  2,  9,  5,  0,  6,  0
        |  8,  8,  9,  0,  2, 10,  1,  6,  0,  9,  0,  0,  3,  9,  1,  0
        |  0,  0,  0,  5,  0,  0,  0,  0,  6,  0,  4,  3,  0,  0,  0,  3 |];
